467
2489
1412
3421
3246
2309
2758
655
2926
3374
1975
2124
1289
1036
2905
743
1571
3222
1002
1309
1753
935
1351
1314
1980
2063
2042
3269
228
2327
2032
1765
2423
150
1245
2866
2011
991
3051
2355
2383
1416
1921
3373
2162
194
1040
105
839
1319
1721
2206
1347
2925
2936
1719
1196
872
1108
2599
3604
2956
547
3367
1085
2000
2090
1665
2762
1283
1482
2361
2204
1624
1976
247
404
2959
1364
2378

1556
82895
24784
113986
117419
92235

39
2077
621
2856
2942
2311

5423

2
91
28
125
128
101
94
4
134
136
68
86
17
18
110
23
66
150
38
44
62
14
58
48
77
68
75
140
8
92
56
82
120
1
47
125
59
36
112
74
94
21
72
121
59
4
7
1
37
35
78
101
26
130
142
78
34
31
29
122
137
103
20
125
32
60
80
82
122
50
48
86
62
56
55
2
10
108
32
115
